c Cardinality constraint <=k(x_1,...,x_n) for k = 1 and n = 7.
p cnf 13 17
-1 8 0
-2 9 0
-8 9 0
-2 -8 0
-3 10 0
-9 10 0
-3 -9 0
-4 11 0
-10 11 0
-4 -10 0
-5 12 0
-11 12 0
-5 -11 0
-6 13 0
-12 13 0
-6 -12 0
-7 -13 0
